NAME: concorde91
TYPE: TSP
DIMENSION: 25 
EDGE_WEIGHT_TYPE: EUC_2D
NODE_COORD_SECTION
1 51 36
2 80 28
3 57 39
4 35 35
5 66 28
6 24 80
7 26 100
8 52 76
9 74 60
10 78 59
11 11 58
12 61 24
13 92 45
14 64 100
15 27 8
16 35 5
17 67 49
18 91 5
19 73 95
20 92 63
21 38 27
22 86 100
23 5 36
24 25 37
25 37 33
